# Solution for model dual
# Objective value = 1.6155653600363362e+02
y[0] 7.1863463996366363e+01
y[1] 34.8
y[2] 16.12
y[3] 7.5
gamma[0,0] 0
gamma[0,1] 0
gamma[0,2] 0
gamma[1,0] 2.1641791044776115e-01
gamma[1,1] 0
gamma[1,2] 0
gamma[2,0] 6.8535031847133734e-02
gamma[2,1] 0
gamma[2,2] 0
gamma[3,0] 2.7777777777777776e-02
gamma[3,1] 0
gamma[3,2] 0
w[0,0] 3.1365360036336366e-02
w[0,1] 0
w[0,2] 0
w[1,0] 0
w[1,1] 0
w[1,2] 0
w[2,0] 0
w[2,1] 0
w[2,2] 0
w[3,0] 0
w[3,1] 0
w[3,2] 0
sigma[0,0] 7.1863463996366361e-01
sigma[0,1] 1.4686346399636636e+00
sigma[0,2] 9.6863463996366361e-01
sigma[1,0] 1.2164179104477610e+00
sigma[1,1] 1.4935622317596564e+00
sigma[1,2] 1
sigma[2,0] 1.0685350318471336e+00
sigma[2,1] 1.4925925925925927e+00
sigma[2,2] 1
sigma[3,0] 1.0277777777777777e+00
sigma[3,1] 1.5
sigma[3,2] 1
beta[0,0] 2.8136536003633639e-01
beta[0,1] 0
beta[0,2] 0
beta[1,0] 0
beta[1,1] 0
beta[1,2] 0
beta[2,0] 0
beta[2,1] 0
beta[2,2] 0
beta[3,0] 0
beta[3,1] 0
beta[3,2] 0
